(set-logic QF_S)
(declare-const c6 String)
(declare-const c7 String)
(declare-const c8 String)
(declare-const c9 String)
(declare-const c10 String)
(assert (= (str.++ c6 c7 c8 c9 c10) "fghij"))
(check-sat)
(get-model)